(set-logic QF_S)
(declare-fun var0 () String)
(declare-fun var1 () String)
(declare-fun var2 () String)
(declare-fun var3 () Int)
(declare-fun var4 () Int)
(declare-fun var5 () Int)
(declare-fun var6 () Bool)
(declare-fun var7 () Bool)
(declare-fun var8 () Bool)
(assert (str.prefixof var2 var1))
(assert (>= (str.len "-^kN04,s=a") (str.indexof var2 var1 var4)))
(assert (str.in.re var2 re.allchar))
(assert (< (str.len (str.substr var0 var5 1)) (str.len (str.at var1 var5))))
(check-sat)